 $CONTRL SCFTYP=ROHF MULT=3 ICHARG=0 RUNTYP=OPTIMIZE
 DFTTYP=B3LYP ISPHER=1 MAXIT=200 NPRINT=-5 TDDFT=MRSF $END
 $BASIS GBASIS=N311 NGAUSS=6 NDFUNC=1 NPFUNC=1 DIFFSP=.F. DIFFS=.F. $END
 $SYSTEM MWORDS=200 $END
 $SCF DIRSCF=.T. DIIS=.T. $END
 $TDDFT IROOT=2 NSTATE=5 $END
 $DATA
 C22N2H16O5
C1
CARBON          6.0     -4.310034000        -0.328040000        -0.234465000
CARBON          6.0     -5.458850000        -1.118982000        -0.352646000
CARBON          6.0     -6.706949000        -0.573208000        -0.080613000
CARBON          6.0     -6.812888000         0.761268000         0.312163000
CARBON          6.0     -5.669271000         1.550558000         0.433088000
CARBON          6.0     -4.416863000         1.011830000         0.160942000
HYDROGEN        1.0     -5.358601000        -2.153463000        -0.656876000
HYDROGEN        1.0     -7.596100000        -1.186059000        -0.173561000
HYDROGEN        1.0     -7.787435000         1.186262000         0.525414000
HYDROGEN        1.0     -5.753538000         2.586337000         0.741114000
HYDROGEN        1.0     -3.530031000         1.623936000         0.258874000
CARBON          6.0     -3.011423000        -0.973923000        -0.534359000
OXYGEN          8.0     -2.821574000        -2.124134000        -0.813537000
OXYGEN          8.0     -1.996351000        -0.033857000        -0.453365000
OXYGEN          8.0     -0.723916000        -0.605477000        -0.746405000
CARBON          6.0     -0.159011000        -1.174823000         0.384134000
CARBON          6.0      1.221862000        -1.614802000         0.087362000
CARBON          6.0      1.841967000        -1.388168000        -1.147536000
CARBON          6.0      1.919889000        -2.261523000         1.113300000
CARBON          6.0      3.148386000        -1.817864000        -1.350094000
HYDROGEN        1.0      1.313178000        -0.873669000        -1.938224000
CARBON          6.0      3.226061000        -2.686048000         0.903817000
HYDROGEN        1.0      1.429742000        -2.420567000         2.065677000
CARBON          6.0      3.840017000        -2.468126000        -0.328755000
HYDROGEN        1.0      3.630092000        -1.637836000        -2.303859000
HYDROGEN        1.0      3.767042000        -3.181769000         1.701424000
HYDROGEN        1.0      4.862275000        -2.789782000        -0.488864000
OXYGEN          8.0     -0.743600000        -1.278906000         1.425982000
CARBON          6.0     -0.076440000         2.712010000        -0.172937000
CARBON          6.0      1.006965000         2.620387000        -1.026582000
CARBON          6.0      2.194575000         2.000821000        -0.605750000
CARBON          6.0      2.267760000         1.471385000         0.701400000
CARBON          6.0      1.169242000         1.564543000         1.563582000
CARBON          6.0      0.009962000         2.180561000         1.122590000
HYDROGEN        1.0     -0.994506000         3.182108000        -0.503946000
HYDROGEN        1.0      0.972088000         3.014682000        -2.035387000
HYDROGEN        1.0      1.229497000         1.141263000         2.559916000
HYDROGEN        1.0     -0.844685000         2.238690000         1.786353000
CARBON          6.0      4.543347000         0.730983000         0.259497000
CARBON          6.0      4.340388000         1.320252000        -1.077478000
HYDROGEN        1.0      5.182525000         1.238291000        -1.759954000
NITROGEN        7.0      3.265514000         1.908634000        -1.479032000
OXYGEN          8.0      5.577454000         0.179733000         0.617385000
NITROGEN        7.0      3.444545000         0.858112000         1.078371000
HYDROGEN        1.0      3.519791000         0.450928000         2.002081000
 $END